NAME: st70.opt.tour 
TYPE: TOUR 
DIMENSION: 70 
TOUR_SECTION 
31 
40 
45 
54 
7 
19 
22 
55 
3 
4 
10 
14 
68 
41 
61 
50 
62 
0 
69 
63 
38 
59 
57 
36 
11 
12 
47 
46 
53 
2 
17 
34 
37 
20 
1 
5 
8 
35 
39 
6 
58 
65 
52 
25 
18 
13 
21 
64 
42 
16 
28 
15 
27 
51 
66 
33 
67 
26 
44 
56 
60 
24 
32 
48 
23 
49 
9 
43 
29 
30 
